--- Job M1_5_E1e.gms Start 05/22/25 14:47:21 49.5.0 b32bf9f5 WEX-WEI x86 64bit/MS Windows
--- Applying:
    C:\GAMS\49\gmsprmNT.txt
--- GAMS Parameters defined
    Input "C:\Users\pm.deoliveiradejes\Dropbox\Maestria en Energia (MISE)\MISE_E4\MISE_E4-main\M1.5_Self-Generation_Dispatch Hydrogen\Ejemplo_1_H\gams\M1_5_E1e.gms"
    PageSize 0
    ScrDir "C:\Users\pm.deoliveiradejes\Dropbox\Maestria en Energia (MISE)\MISE_E4\MISE_E4-main\M1.5_Self-Generation_Dispatch Hydrogen\Ejemplo_1_H\gams\225a\"
    SysDir C:\GAMS\49\
    LogOption 3
    ErrMsg 1
    ErrorLog 99
    IDE 1
    LstTitleLeftAligned 1
Licensee: Academic User                                  G240823+0003Ac-GEN
          pm.deoliveiradejes@uniandes.edu.co                      CLA100108
          225a\gamslice.dat
          node:36839801 mem:8 cores:4 ipport:57336 v:2                     
          Community license for demonstration and instructional purposes only
System information: 4 physical cores and 8 Gb memory detected
GAMS 49.5.0   Copyright (C) 1987-2025 GAMS Development. All rights reserved
--- Starting compilation
--- M1_5_E1e.gms(210) 3 Mb
--- Starting execution: elapsed 0:00:00.185
--- M1_5_E1e.gms(201) 4 Mb
--- Generating MIP model AGPE_ES_H2
--- M1_5_E1e.gms(208) 4 Mb
---   522 rows  401 columns  1,413 non-zeroes
---   166 discrete-columns
--- Range statistics (absolute non-zero finite values)
--- RHS       [min, max] : [ 1.000E+00, 9.596E+05] - Zero values observed as well
--- Bound     [min, max] : [ 1.000E+00, 1.900E+03] - Zero values observed as well
--- Matrix    [min, max] : [ 1.500E-02, 1.460E+03]
--- Executing GUROBI (Solvelink=2): elapsed 0:00:00.891

Gurobi           49.5.0 b32bf9f5 Apr 29, 2025          WEI x86 64bit/MS Window

*** This solver runs with a community license. No commercial use.
Gurobi library version 12.0.1
GAMS/Gurobi demo/community requires a Gurobi license from Gurobi Optimization.
Set parameter OutputFlag to value 1
Set parameter MIPGap to value 0.0001
Set parameter MIPGapAbs to value 0
Space for names approximately 0.01 Mb
Use option 'names no' to turn use of names off
Set parameter OutputFlag to value 1
Starting Gurobi...
Gurobi Optimizer version 12.0.1 build v12.0.1rc0 (win64 - Windows 10.0 (19045.2))

CPU model: Intel(R) Core(TM) i7-2600 CPU @ 3.40GHz, instruction set [SSE2|AVX]
Thread count: 4 physical cores, 8 logical processors, using up to 8 threads

Non-default parameters:
MIPGapAbs  0

Academic license 2663428 - for non-commercial use only - registered to pm___@uniandes.edu.co
Optimize a model with 521 rows, 400 columns and 1409 nonzeros
Model fingerprint: 0xf70cf973
Variable types: 234 continuous, 166 integer (166 binary)
Coefficient statistics:
  Matrix range     [1e-02, 1e+03]
  Objective range  [1e+00, 1e+00]
  Bounds range     [1e+00, 2e+03]
  RHS range        [1e+00, 1e+06]
Presolve removed 250 rows and 129 columns
Presolve time: 0.20s
Presolved: 271 rows, 271 columns, 765 nonzeros
Variable types: 136 continuous, 135 integer (135 binary)
Found heuristic solution: objective -55863.65923

Root relaxation: objective -1.663017e+04, 117 iterations, 0.00 seconds (0.00 work units)

    Nodes    |    Current Node    |     Objective Bounds      |     Work
 Expl Unexpl |  Obj  Depth IntInf | Incumbent    BestBd   Gap | It/Node Time

     0     0 -16630.173    0    7 -55863.659 -16630.173  70.2%     -    0s
H    0     0                    -16782.69380 -16630.173  0.91%     -    0s
H    0     0                    -16698.97264 -16630.173  0.41%     -    0s
H    0     0                    -16673.95504 -16630.173  0.26%     -    0s
H    0     0                    -16651.90845 -16630.173  0.13%     -    0s
     0     0 -16648.457    0   10 -16651.908 -16648.457  0.02%     -    0s
     0     0 -16648.457    0    1 -16651.908 -16648.457  0.02%     -    0s
     0     0          -    0      -16651.908 -16651.669  0.00%     -    0s

Cutting planes:
  Gomory: 1
  Implied bound: 2
  Relax-and-lift: 2

Explored 1 nodes (152 simplex iterations) in 0.33 seconds (0.01 work units)
Thread count was 8 (of 8 available processors)

Solution count 7: -16651.9 -16651.9 -16658.4 ... -55863.7

Optimal solution found (tolerance 1.00e-04)
Best objective -1.665190845394e+04, best bound -1.665166903200e+04, gap 0.0014%

User-callback calls 601, time in user-callback 0.00 sec
MIP status(2): Model was solved to optimality (subject to tolerances).

Solving fixed MIP.
Gurobi Optimizer version 12.0.1 build v12.0.1rc0 (win64 - Windows 10.0 (19045.2))

CPU model: Intel(R) Core(TM) i7-2600 CPU @ 3.40GHz, instruction set [SSE2|AVX]
Thread count: 4 physical cores, 8 logical processors, using up to 8 threads

Non-default parameters:
MIPGapAbs  0

Academic license 2663428 - for non-commercial use only - registered to pm___@uniandes.edu.co
Optimize a model with 521 rows, 400 columns and 1409 nonzeros
Model fingerprint: 0xdc82cbc8
Coefficient statistics:
  Matrix range     [1e-02, 1e+03]
  Objective range  [1e+00, 1e+00]
  Bounds range     [1e+00, 2e+03]
  RHS range        [1e+00, 1e+06]
Presolve removed 500 rows and 348 columns
Presolve time: 0.00s
Presolved: 21 rows, 52 columns, 72 nonzeros

Iteration    Objective       Primal Inf.    Dual Inf.      Time
       0    8.1083660e+04   5.972357e+02   0.000000e+00      0s
      22   -1.6651908e+04   0.000000e+00   0.000000e+00      0s

Solved in 22 iterations and 0.02 seconds (0.00 work units)
Optimal objective -1.665190845e+04

User-callback calls 105, time in user-callback 0.00 sec
Fixed MIP status(2): Model was solved to optimality (subject to tolerances).

MIP   Solution:     -16651.908454    (152 iterations, 1 nodes)
Final Solve:        -16651.908454    (22 iterations)

Best possible:      -16651.669032
Absolute gap:            0.239422
Relative gap:            0.000014

--- Reading solution for model AGPE_ES_H2
--- Executing after solve: elapsed 0:00:03.324
--- M1_5_E1e.gms(210) 4 Mb
--- GDX File (execute_unload) C:\Users\pm.deoliveiradejes\Dropbox\Maestria en Energia (MISE)\MISE_E4\MISE_E4-main\M1.5_Self-Generation_Dispatch Hydrogen\Ejemplo_1_H\gams\Results_M1_5_E1e.gdx
*** Status: Normal completion
--- Job M1_5_E1e.gms Stop 05/22/25 14:47:24 elapsed 0:00:03.341
Cannot delete directory: 225a
Cannot delete directory: 225a
